288387.0
3748
1 6 7 8 9 11 12 14 16 18 19 20 21 22 23 24 25 26 27 29 31 32 33 34 36 37 38 39 42 43 44 46 47 48 49 50 53 54 57 58 59 60 63 64 65 66 67 68 70 71 72 73 74 76 78 79 80 81 82 83 84 86 87 89 90 91 92 93 94 96 97 98 100 101 102 103 104 105 106 109 110 111 112 114 115 117 118 119 120 122 123 124 125 128 129 130 131 132 133 134 135 136 138 139 141 142 143 146 147 148 149 150 151 153 154 157 158 161 162 163 164 165 169 170 171 172 173 174 175 177 178 179 180 182 184 185 186 187 188 189 190 193 196 197 198 